Route #1: 32 40 3 50 46 22
Route #2: 56 6
Route #3: 1 27 18 28 9 55 31
Route #4: 54 43 52 24 45 17 10
Route #5: 4 30 49 35 48 38 12
Route #6: 14 34 44 13 2 20 7
Route #7: 19 39 26 23 16 42
Route #8: 53 29 41 21 36 47 5
Route #9: 33 11 37 51 25 15 8
Cost 1599
Time 0.090107
